(set-option :produce-models true); benchmark generated from python API
(set-info :status unknown)
(declare-fun l_0_0_13 () Real)
(declare-fun l_0_0_1 () Real)
(declare-fun _a_0_ () Real)
(declare-fun l_0_0_3 () Real)
(declare-fun l_0_0_2 () Real)
(declare-fun l_0_0_15 () Real)
(declare-fun l_0_0_14 () Real)
(declare-fun _a_1_ () Real)
(declare-fun l_0_0_7 () Real)
(declare-fun l_0_0_6 () Real)
(declare-fun l_0_0_5 () Real)
(declare-fun l_0_0_4 () Real)
(declare-fun l_0_0_18 () Real)
(declare-fun l_0_0_17 () Real)
(declare-fun l_0_0_16 () Real)
(declare-fun l_0_0_10 () Real)
(declare-fun _a_2_ () Real)
(declare-fun l_0_0_8 () Real)
(declare-fun l_0_0_9 () Real)
(declare-fun l_0_0_11 () Real)
(declare-fun l_0_0_12 () Real)
(declare-fun l_0_1_7 () Real)
(declare-fun l_0_1_13 () Real)
(declare-fun l_0_1_1 () Real)
(declare-fun l_0_1_16 () Real)
(declare-fun l_0_1_10 () Real)
(declare-fun l_0_1_4 () Real)
(declare-fun l_0_1_8 () Real)
(declare-fun l_0_1_14 () Real)
(declare-fun l_0_1_2 () Real)
(declare-fun l_0_1_9 () Real)
(declare-fun l_0_1_15 () Real)
(declare-fun l_0_1_3 () Real)
(declare-fun l_0_1_17 () Real)
(declare-fun l_0_1_11 () Real)
(declare-fun l_0_1_5 () Real)
(declare-fun l_0_1_18 () Real)
(declare-fun l_0_1_12 () Real)
(declare-fun l_0_1_6 () Real)
(declare-fun l_0_2_7 () Real)
(declare-fun l_0_2_13 () Real)
(declare-fun l_0_2_1 () Real)
(declare-fun l_0_2_9 () Real)
(declare-fun l_0_2_8 () Real)
(declare-fun l_0_2_3 () Real)
(declare-fun l_0_2_2 () Real)
(declare-fun l_0_2_12 () Real)
(declare-fun l_0_2_11 () Real)
(declare-fun l_0_2_10 () Real)
(declare-fun l_0_2_6 () Real)
(declare-fun l_0_2_5 () Real)
(declare-fun l_0_2_4 () Real)
(declare-fun l_0_2_14 () Real)
(declare-fun l_0_2_16 () Real)
(declare-fun l_0_2_15 () Real)
(declare-fun l_0_2_17 () Real)
(declare-fun l_0_2_18 () Real)
(assert
 (let ((?x66 (* l_0_0_13 l_0_0_13)))
 (let ((?x62 (* l_0_0_1 l_0_0_1)))
 (let ((?x64 (* (/ 99.0 100.0) ?x62)))
 (let ((?x65 (+ _a_0_ ?x64)))
 (= (- ?x65 ?x66) 0.0))))))
(assert
 (let ((?x105 (* l_0_0_3 l_0_0_3)))
 (let ((?x106 (* (/ 99.0 100.0) ?x105)))
 (let ((?x102 (* l_0_0_2 l_0_0_2)))
 (let ((?x103 (* (/ 99.0 100.0) ?x102)))
 (let ((?x100 (* l_0_0_15 l_0_0_15)))
 (let ((?x98 (* l_0_0_14 l_0_0_14)))
 (let ((?x62 (* l_0_0_1 l_0_0_1)))
 (let ((?x101 (- (- (+ (- _a_1_ (* (* 4.0 l_0_0_1) l_0_0_2)) ?x62) ?x98) ?x100)))
 (= (+ (+ ?x101 ?x103) ?x106) 0.0))))))))))
(assert
 (let ((?x144 (* l_0_0_7 l_0_0_7)))
 (let ((?x141 (* l_0_0_6 l_0_0_6)))
 (let ((?x142 (* (/ 99.0 100.0) ?x141)))
 (let ((?x138 (* l_0_0_5 l_0_0_5)))
 (let ((?x139 (* (/ 99.0 100.0) ?x138)))
 (let ((?x135 (* l_0_0_4 l_0_0_4)))
 (let ((?x136 (* (/ 99.0 100.0) ?x135)))
 (let ((?x133 (* l_0_0_18 l_0_0_18)))
 (let ((?x131 (* l_0_0_17 l_0_0_17)))
 (let ((?x129 (* l_0_0_16 l_0_0_16)))
 (let ((?x134 (- (- (- (- _a_2_ (* (* (/ 2.0 5.0) l_0_0_10) l_0_0_7)) ?x129) ?x131) ?x133)))
 (= (+ (+ (+ (+ ?x134 ?x136) ?x139) ?x142) ?x144) 0.0)))))))))))))
(assert
 (let ((?x171 (- (* (* (/ 99.0 50.0) l_0_0_1) l_0_0_2) (* (* 2.0 l_0_0_1) l_0_0_1))))
 (= (- ?x171 (* (* 2.0 l_0_0_13) l_0_0_14)) 0.0)))
(assert
 (let ((?x197 (- (* (* (- 4.0) l_0_0_1) l_0_0_4) (* (* 2.0 l_0_0_14) l_0_0_16))))
 (let ((?x203 (+ (- ?x197 (* (* 2.0 l_0_0_15) l_0_0_17)) (* (* (/ 99.0 50.0) l_0_0_2) l_0_0_4))))
 (let ((?x209 (- (+ ?x203 (* (* (/ 99.0 50.0) l_0_0_3) l_0_0_5)) (* (* (/ 2.0 5.0) l_0_0_7) l_0_0_8))))
 (= ?x209 0.0)))))
(assert
 (let ((?x244 (- (* (* 2.0 l_0_0_1) l_0_0_2) (* (* 2.0 l_0_0_2) l_0_0_2))))
 (= (- ?x244 (* (* 2.0 l_0_0_3) l_0_0_3)) 0.0)))
(assert
 (let ((?x266 (- (* (* 2.0 l_0_0_1) l_0_0_4) (* (* 4.0 l_0_0_2) l_0_0_4))))
 (let ((?x273 (- (- ?x266 (* (* 4.0 l_0_0_3) l_0_0_5)) (* (* (/ 1.0 5.0) l_0_0_8) l_0_0_8))))
 (= (- ?x273 (* (* (/ 1.0 5.0) l_0_0_9) l_0_0_9)) 0.0))))
(assert
 (let ((?x307 (- (* (* (- (/ 2.0 5.0)) l_0_0_10) l_0_0_8) (* (* (/ 2.0 5.0) l_0_0_11) l_0_0_9))))
 (let ((?x313 (- (- ?x307 (* (* 2.0 l_0_0_4) l_0_0_4)) (* (* 2.0 l_0_0_5) l_0_0_5))))
 (let ((?x319 (+ (- ?x313 (* (* 2.0 l_0_0_6) l_0_0_6)) (* (* 2.0 l_0_0_7) l_0_0_8))))
 (= ?x319 0.0)))))
(assert
 (= (+ (* l_0_0_2 l_0_0_2) (* l_0_0_3 l_0_0_3)) 0.0))
(assert
 (let ((?x352 (+ (* (* 2.0 l_0_0_2) l_0_0_4) (* (* 2.0 l_0_0_3) l_0_0_5))))
 (= ?x352 0.0)))
(assert
 (let ((?x296 (* l_0_0_9 l_0_0_9)))
 (let ((?x289 (* l_0_0_8 l_0_0_8)))
 (let ((?x141 (* l_0_0_6 l_0_0_6)))
 (let ((?x361 (+ (+ (+ (+ (* l_0_0_4 l_0_0_4) (* l_0_0_5 l_0_0_5)) ?x141) ?x289) ?x296)))
 (= ?x361 0.0))))))
(assert
 (let ((?x367 (- (* (* (/ 99.0 50.0) l_0_0_1) l_0_0_4) (* (* 2.0 l_0_0_13) l_0_0_16))))
 (= (- ?x367 (* (* (/ 1.0 5.0) l_0_0_7) l_0_0_7)) 0.0)))
(assert
 (let ((?x391 (- (* (* 2.0 l_0_0_10) l_0_0_7) (* (* (/ 1.0 5.0) l_0_0_10) l_0_0_10))))
 (let ((?x397 (- (- ?x391 (* (* (/ 1.0 5.0) l_0_0_11) l_0_0_11)) (* (* (/ 1.0 5.0) l_0_0_12) l_0_0_12))))
 (= ?x397 0.0))))
(assert
 (let ((?x422 (+ (* (* 2.0 l_0_0_10) l_0_0_8) (* (* 2.0 l_0_0_11) l_0_0_9))))
 (= ?x422 0.0)))
(assert
 (let ((?x412 (* l_0_0_12 l_0_0_12)))
 (= (+ (+ (* l_0_0_10 l_0_0_10) (* l_0_0_11 l_0_0_11)) ?x412) 0.0)))
(assert
 (>= l_0_0_1 0.0))
(assert
 (>= l_0_0_3 0.0))
(assert
 (>= l_0_0_6 0.0))
(assert
 (>= l_0_0_7 0.0))
(assert
 (>= l_0_0_9 0.0))
(assert
 (>= l_0_0_12 0.0))
(assert
 (>= l_0_0_13 0.0))
(assert
 (>= l_0_0_15 0.0))
(assert
 (>= l_0_0_18 0.0))
(assert
 (let ((?x449 (+ (- (* (* (- _a_0_) l_0_1_1) l_0_1_1) (* l_0_1_13 l_0_1_13)) (* 2.0 (* l_0_1_7 l_0_1_7)))))
 (= (+ ?x449 2.0) 0.0)))
(assert
 (let ((?x466 (+ (* (* (* (- 2.0) _a_0_) l_0_1_1) l_0_1_4) (* (* 4.0 l_0_1_10) l_0_1_7))))
 (= (- (- ?x466 (* (* 2.0 l_0_1_13) l_0_1_16)) 1.0) 0.0)))
(assert
 (let ((?x490 (- (* (* (* (- 2.0) _a_0_) l_0_1_1) l_0_1_2) (* (* 2.0 l_0_1_13) l_0_1_14))))
 (= (- (+ ?x490 (* (* 4.0 l_0_1_7) l_0_1_8)) 2.0) 0.0)))
(assert
 (let ((?x447 (* l_0_1_7 l_0_1_7)))
 (let ((?x525 (* l_0_1_15 l_0_1_15)))
 (let ((?x523 (* l_0_1_14 l_0_1_14)))
 (let ((?x522 (- (* (- _a_0_) (+ (* l_0_1_2 l_0_1_2) (* l_0_1_3 l_0_1_3))) (* (* _a_1_ l_0_1_1) l_0_1_1))))
 (let ((?x530 (+ (- (- (- ?x522 ?x523) ?x525) ?x447) (* 2.0 (* l_0_1_8 l_0_1_8)))))
 (= (+ ?x530 (* 2.0 (* l_0_1_9 l_0_1_9))) 0.0)))))))
(assert
 (let ((?x561 (+ (* (* 2.0 l_0_1_2) l_0_1_4) (* (* 2.0 l_0_1_3) l_0_1_5))))
 (let ((?x442 (- _a_0_)))
 (let ((?x567 (+ (+ (* ?x442 ?x561) (* (* 4.0 l_0_1_10) l_0_1_8)) (* (* 4.0 l_0_1_11) l_0_1_9))))
 (let ((?x573 (- (- ?x567 (* (* 2.0 l_0_1_14) l_0_1_16)) (* (* 2.0 l_0_1_15) l_0_1_17))))
 (= ?x573 0.0))))))
(assert
 (let ((?x447 (* l_0_1_7 l_0_1_7)))
 (let ((?x624 (* l_0_1_18 l_0_1_18)))
 (let ((?x622 (* l_0_1_17 l_0_1_17)))
 (let ((?x620 (* l_0_1_16 l_0_1_16)))
 (let ((?x617 (* l_0_1_12 l_0_1_12)))
 (let ((?x618 (* 2.0 ?x617)))
 (let ((?x614 (* l_0_1_11 l_0_1_11)))
 (let ((?x615 (* 2.0 ?x614)))
 (let ((?x611 (* l_0_1_10 l_0_1_10)))
 (let ((?x612 (* 2.0 ?x611)))
 (let ((?x605 (* l_0_1_6 l_0_1_6)))
 (let ((?x606 (+ (+ (* l_0_1_4 l_0_1_4) (* l_0_1_5 l_0_1_5)) ?x605)))
 (let ((?x442 (- _a_0_)))
 (let ((?x616 (+ (+ (- (* ?x442 ?x606) (* (* _a_2_ l_0_1_1) l_0_1_1)) ?x612) ?x615)))
 (= (- (- (- (- (+ ?x616 ?x618) ?x620) ?x622) ?x624) ?x447) 0.0))))))))))))))))
(assert
 (let ((?x660 (* (* 2.0 l_0_1_7) l_0_1_8)))
 (= (- (* (* (* (- 2.0) _a_1_) l_0_1_1) l_0_1_2) ?x660) 0.0)))
(assert
 (let ((?x674 (* 2.0 l_0_1_10)))
 (let ((?x675 (* ?x674 l_0_1_7)))
 (= (- (* (* (* (- 2.0) _a_1_) l_0_1_1) l_0_1_4) ?x675) 0.0))))
(assert
 (let ((?x531 (* l_0_1_9 l_0_1_9)))
 (let ((?x528 (* l_0_1_8 l_0_1_8)))
 (let ((?x691 (- (* (- _a_1_) (+ (* l_0_1_2 l_0_1_2) (* l_0_1_3 l_0_1_3))) ?x528)))
 (= (- ?x691 ?x531) 0.0)))))
(assert
 (let ((?x712 (* (* 2.0 l_0_1_11) l_0_1_9)))
 (let ((?x674 (* 2.0 l_0_1_10)))
 (let ((?x709 (* ?x674 l_0_1_8)))
 (let ((?x561 (+ (* (* 2.0 l_0_1_2) l_0_1_4) (* (* 2.0 l_0_1_3) l_0_1_5))))
 (let ((?x689 (- _a_1_)))
 (= (- (- (* ?x689 ?x561) ?x709) ?x712) 0.0)))))))
(assert
 (let ((?x531 (* l_0_1_9 l_0_1_9)))
 (let ((?x528 (* l_0_1_8 l_0_1_8)))
 (let ((?x617 (* l_0_1_12 l_0_1_12)))
 (let ((?x614 (* l_0_1_11 l_0_1_11)))
 (let ((?x611 (* l_0_1_10 l_0_1_10)))
 (let ((?x605 (* l_0_1_6 l_0_1_6)))
 (let ((?x606 (+ (+ (* l_0_1_4 l_0_1_4) (* l_0_1_5 l_0_1_5)) ?x605)))
 (let ((?x689 (- _a_1_)))
 (let ((?x735 (- (* ?x689 ?x606) (* _a_2_ (+ (* l_0_1_2 l_0_1_2) (* l_0_1_3 l_0_1_3))))))
 (= (- (- (- (- (- ?x735 ?x611) ?x614) ?x617) ?x528) ?x531) 0.0)))))))))))
(assert
 (let ((?x660 (* (* 2.0 l_0_1_7) l_0_1_8)))
 (= (- (* (* (* (- 2.0) _a_2_) l_0_1_1) l_0_1_2) ?x660) 0.0)))
(assert
 (let ((?x674 (* 2.0 l_0_1_10)))
 (let ((?x675 (* ?x674 l_0_1_7)))
 (= (- (* (* (* (- 2.0) _a_2_) l_0_1_1) l_0_1_4) ?x675) 0.0))))
(assert
 (let ((?x712 (* (* 2.0 l_0_1_11) l_0_1_9)))
 (let ((?x674 (* 2.0 l_0_1_10)))
 (let ((?x709 (* ?x674 l_0_1_8)))
 (let ((?x561 (+ (* (* 2.0 l_0_1_2) l_0_1_4) (* (* 2.0 l_0_1_3) l_0_1_5))))
 (let ((?x800 (- _a_2_)))
 (= (- (- (* ?x800 ?x561) ?x709) ?x712) 0.0)))))))
(assert
 (let ((?x617 (* l_0_1_12 l_0_1_12)))
 (let ((?x614 (* l_0_1_11 l_0_1_11)))
 (let ((?x611 (* l_0_1_10 l_0_1_10)))
 (let ((?x605 (* l_0_1_6 l_0_1_6)))
 (let ((?x606 (+ (+ (* l_0_1_4 l_0_1_4) (* l_0_1_5 l_0_1_5)) ?x605)))
 (let ((?x800 (- _a_2_)))
 (= (- (- (- (* ?x800 ?x606) ?x611) ?x614) ?x617) 0.0))))))))
(assert
 (>= l_0_1_1 0.0))
(assert
 (>= l_0_1_3 0.0))
(assert
 (>= l_0_1_6 0.0))
(assert
 (>= l_0_1_7 0.0))
(assert
 (>= l_0_1_9 0.0))
(assert
 (>= l_0_1_12 0.0))
(assert
 (>= l_0_1_13 0.0))
(assert
 (>= l_0_1_15 0.0))
(assert
 (>= l_0_1_18 0.0))
(assert
 (let ((?x849 (* l_0_2_13 l_0_2_13)))
 (let ((?x853 (- (- (+ (* (* (- _a_0_) l_0_2_1) l_0_2_1) _a_0_) ?x849) (* (* 2.0 l_0_2_7) l_0_2_7))))
 (= ?x853 0.0))))
(assert
 (let ((?x880 (* l_0_2_9 l_0_2_9)))
 (let ((?x878 (* l_0_2_8 l_0_2_8)))
 (let ((?x876 (* (/ 9.0 25.0) _a_2_)))
 (let ((?x873 (* (/ 1.0 4.0) _a_1_)))
 (let ((?x874 (+ (* (- _a_1_) (+ (* l_0_2_2 l_0_2_2) (* l_0_2_3 l_0_2_3))) ?x873)))
 (= (+ (+ (+ ?x874 ?x876) ?x878) ?x880) 0.0)))))))
(assert
 (let ((?x880 (* l_0_2_9 l_0_2_9)))
 (let ((?x878 (* l_0_2_8 l_0_2_8)))
 (let ((?x905 (* l_0_2_12 l_0_2_12)))
 (let ((?x903 (* l_0_2_11 l_0_2_11)))
 (let ((?x901 (* l_0_2_10 l_0_2_10)))
 (let ((?x876 (* (/ 9.0 25.0) _a_2_)))
 (let ((?x896 (* (/ 2.0 5.0) _a_1_)))
 (let ((?x893 (* l_0_2_6 l_0_2_6)))
 (let ((?x894 (+ (+ (* l_0_2_4 l_0_2_4) (* l_0_2_5 l_0_2_5)) ?x893)))
 (let ((?x689 (- _a_1_)))
 (let ((?x899 (- (+ (* ?x689 ?x894) ?x896) (* _a_2_ (+ (* l_0_2_2 l_0_2_2) (* l_0_2_3 l_0_2_3))))))
 (= (+ (+ (+ (+ (+ (- ?x899 ?x876) ?x901) ?x903) ?x905) ?x878) ?x880) 0.0)))))))))))))
(assert
 (let ((?x905 (* l_0_2_12 l_0_2_12)))
 (let ((?x903 (* l_0_2_11 l_0_2_11)))
 (let ((?x901 (* l_0_2_10 l_0_2_10)))
 (let ((?x942 (* (/ 9.0 100.0) _a_2_)))
 (let ((?x893 (* l_0_2_6 l_0_2_6)))
 (let ((?x894 (+ (+ (* l_0_2_4 l_0_2_4) (* l_0_2_5 l_0_2_5)) ?x893)))
 (let ((?x938 (* (/ 4.0 25.0) _a_1_)))
 (= (+ (+ (+ (+ (- ?x938 (* _a_2_ ?x894)) ?x942) ?x901) ?x903) ?x905) 0.0)))))))))
(assert
 (let ((?x970 (- (* (* (* (- 2.0) _a_0_) l_0_2_1) l_0_2_2) (* (* 2.0 l_0_2_13) l_0_2_14))))
 (= (- ?x970 (* (* 4.0 l_0_2_7) l_0_2_8)) 0.0)))
(assert
 (let ((?x995 (- (* (* (* (- 2.0) _a_0_) l_0_2_1) l_0_2_4) (* (* 4.0 l_0_2_10) l_0_2_7))))
 (= (- ?x995 (* (* 2.0 l_0_2_13) l_0_2_16)) 0.0)))
(assert
 (let ((?x861 (* l_0_2_7 l_0_2_7)))
 (let ((?x1024 (* l_0_2_15 l_0_2_15)))
 (let ((?x1022 (* l_0_2_14 l_0_2_14)))
 (let ((?x1021 (- (* (- _a_0_) (+ (* l_0_2_2 l_0_2_2) (* l_0_2_3 l_0_2_3))) (* (* _a_1_ l_0_2_1) l_0_2_1))))
 (let ((?x1029 (- (+ (- (- ?x1021 ?x1022) ?x1024) ?x861) (* (* 2.0 l_0_2_8) l_0_2_8))))
 (= (- ?x1029 (* (* 2.0 l_0_2_9) l_0_2_9)) 0.0)))))))
(assert
 (let ((?x1065 (+ (* (* 2.0 l_0_2_2) l_0_2_4) (* (* 2.0 l_0_2_3) l_0_2_5))))
 (let ((?x442 (- _a_0_)))
 (let ((?x1071 (- (- (* ?x442 ?x1065) (* (* 4.0 l_0_2_10) l_0_2_8)) (* (* 4.0 l_0_2_11) l_0_2_9))))
 (let ((?x1077 (- (- ?x1071 (* (* 2.0 l_0_2_14) l_0_2_16)) (* (* 2.0 l_0_2_15) l_0_2_17))))
 (= ?x1077 0.0))))))
(assert
 (let ((?x861 (* l_0_2_7 l_0_2_7)))
 (let ((?x1131 (* l_0_2_18 l_0_2_18)))
 (let ((?x1129 (* l_0_2_17 l_0_2_17)))
 (let ((?x1127 (* l_0_2_16 l_0_2_16)))
 (let ((?x893 (* l_0_2_6 l_0_2_6)))
 (let ((?x894 (+ (+ (* l_0_2_4 l_0_2_4) (* l_0_2_5 l_0_2_5)) ?x893)))
 (let ((?x442 (- _a_0_)))
 (let ((?x1120 (- (- (* ?x442 ?x894) (* (* _a_2_ l_0_2_1) l_0_2_1)) (* (* 2.0 l_0_2_10) l_0_2_10))))
 (let ((?x1126 (- (- ?x1120 (* (* 2.0 l_0_2_11) l_0_2_11)) (* (* 2.0 l_0_2_12) l_0_2_12))))
 (= (+ (- (- (- ?x1126 ?x1127) ?x1129) ?x1131) ?x861) 0.0)))))))))))
(assert
 (let ((?x851 (* 2.0 l_0_2_7)))
 (let ((?x1174 (* ?x851 l_0_2_8)))
 (= (+ (* (* (* (- 2.0) _a_1_) l_0_2_1) l_0_2_2) ?x1174) 0.0))))
(assert
 (let ((?x1118 (* 2.0 l_0_2_10)))
 (let ((?x1183 (* ?x1118 l_0_2_7)))
 (= (+ (* (* (* (- 2.0) _a_1_) l_0_2_1) l_0_2_4) ?x1183) 0.0))))
(assert
 (let ((?x1121 (* 2.0 l_0_2_11)))
 (let ((?x1195 (* ?x1121 l_0_2_9)))
 (let ((?x1118 (* 2.0 l_0_2_10)))
 (let ((?x1193 (* ?x1118 l_0_2_8)))
 (let ((?x1065 (+ (* (* 2.0 l_0_2_2) l_0_2_4) (* (* 2.0 l_0_2_3) l_0_2_5))))
 (let ((?x689 (- _a_1_)))
 (= (+ (+ (* ?x689 ?x1065) ?x1193) ?x1195) 0.0))))))))
(assert
 (let ((?x851 (* 2.0 l_0_2_7)))
 (let ((?x1174 (* ?x851 l_0_2_8)))
 (= (+ (* (* (* (- 2.0) _a_2_) l_0_2_1) l_0_2_2) ?x1174) 0.0))))
(assert
 (let ((?x1118 (* 2.0 l_0_2_10)))
 (let ((?x1183 (* ?x1118 l_0_2_7)))
 (= (+ (* (* (* (- 2.0) _a_2_) l_0_2_1) l_0_2_4) ?x1183) 0.0))))
(assert
 (let ((?x1121 (* 2.0 l_0_2_11)))
 (let ((?x1195 (* ?x1121 l_0_2_9)))
 (let ((?x1118 (* 2.0 l_0_2_10)))
 (let ((?x1193 (* ?x1118 l_0_2_8)))
 (let ((?x1065 (+ (* (* 2.0 l_0_2_2) l_0_2_4) (* (* 2.0 l_0_2_3) l_0_2_5))))
 (let ((?x800 (- _a_2_)))
 (= (+ (+ (* ?x800 ?x1065) ?x1193) ?x1195) 0.0))))))))
(assert
 (>= l_0_2_1 0.0))
(assert
 (>= l_0_2_3 0.0))
(assert
 (>= l_0_2_6 0.0))
(assert
 (>= l_0_2_7 0.0))
(assert
 (>= l_0_2_9 0.0))
(assert
 (>= l_0_2_12 0.0))
(assert
 (>= l_0_2_13 0.0))
(assert
 (>= l_0_2_15 0.0))
(assert
 (>= l_0_2_18 0.0))
(check-sat)
(get-model)